p wcnf 140 210 211 
1 -24 -16 0 
1 -64 111 0 
1 36 137 0 
1 35 2 0 
1 -69 93 0 
1 101 -2 0 
1 -114 15 0 
1 -109 116 0 
1 24 -120 0 
1 -109 140 0 
1 -94 112 0 
1 61 18 0 
1 111 46 0 
1 -104 31 0 
1 23 74 0 
1 82 -86 0 
1 -43 -10 0 
1 -136 64 0 
1 -110 10 0 
1 -15 25 0 
1 -31 -8 0 
1 -71 -84 0 
1 32 79 0 
1 -114 -15 0 
1 -18 -47 0 
1 83 92 0 
1 -18 -75 0 
1 12 9 0 
1 121 -22 0 
1 -113 102 0 
1 -4 35 0 
1 121 -93 0 
1 -1 34 0 
1 -7 -72 0 
1 140 -113 0 
1 -61 -3 0 
1 -48 -3 0 
1 -103 -81 0 
1 46 -10 0 
1 16 -53 0 
1 -121 13 0 
1 75 63 0 
1 -41 9 0 
1 -58 -127 0 
1 126 -57 0 
1 -21 -66 0 
1 -114 110 0 
1 -5 69 0 
1 -122 -17 0 
1 30 -109 0 
1 -15 110 0 
1 121 63 0 
1 31 -35 0 
1 -58 17 0 
1 138 -22 0 
1 56 -67 0 
1 -20 86 0 
1 -25 -1 0 
1 98 21 0 
1 51 105 0 
1 -26 59 0 
1 -37 -32 0 
1 47 -134 0 
1 138 128 0 
1 84 -109 0 
1 121 -28 0 
1 16 63 0 
1 136 -83 0 
1 91 -11 0 
1 -79 40 0 
1 -24 -13 0 
1 137 60 0 
1 139 -11 0 
1 97 -128 0 
1 105 -52 0 
1 -132 -31 0 
1 36 -138 0 
1 60 -73 0 
1 -132 50 0 
1 -117 8 0 
1 -127 -39 0 
1 -58 -114 0 
1 94 13 0 
1 84 40 0 
1 -26 114 0 
1 50 80 0 
1 28 68 0 
1 -73 -132 0 
1 113 -22 0 
1 7 91 0 
1 -25 129 0 
1 18 54 0 
1 75 19 0 
1 41 -131 0 
1 92 -47 0 
1 123 129 0 
1 -133 135 0 
1 83 -96 0 
1 -94 53 0 
1 -79 94 0 
1 -11 -40 0 
1 -17 120 0 
1 -88 -111 0 
1 74 101 0 
1 57 12 0 
1 21 -111 0 
1 -121 98 0 
1 17 -5 0 
1 -100 133 0 
1 4 -114 0 
1 41 -14 0 
1 -109 -73 0 
1 -92 -66 0 
1 -101 -69 0 
1 35 -119 0 
1 9 -65 0 
1 15 29 0 
1 36 -35 0 
1 52 -97 0 
1 31 45 0 
1 85 96 0 
1 -119 106 0 
1 134 119 0 
1 87 -29 0 
1 61 -3 0 
1 56 98 0 
1 -16 60 0 
1 13 -134 0 
1 96 119 0 
1 55 139 0 
1 77 -103 0 
1 -107 30 0 
1 90 6 0 
1 -136 -28 0 
1 112 109 0 
1 29 -60 0 
1 129 -15 0 
1 -77 5 0 
1 -112 63 0 
1 78 -51 0 
1 -88 60 0 
1 -40 -65 0 
1 -53 83 0 
1 -109 -40 0 
1 -56 76 0 
1 -100 86 0 
1 63 12 0 
1 -73 4 0 
1 107 67 0 
1 -139 -76 0 
1 -32 -116 0 
1 -121 129 0 
1 61 -31 0 
1 126 -135 0 
1 -95 -88 0 
1 -135 -5 0 
1 134 121 0 
1 -83 -8 0 
1 4 89 0 
1 43 -107 0 
1 -68 61 0 
1 124 89 0 
1 21 -91 0 
1 -78 -29 0 
1 22 -115 0 
1 133 -95 0 
1 103 62 0 
1 82 -110 0 
1 -18 -10 0 
1 68 -89 0 
1 -118 85 0 
1 -119 -61 0 
1 -23 85 0 
1 87 -47 0 
1 50 -63 0 
1 -108 -3 0 
1 -100 -95 0 
1 -48 -110 0 
1 -37 88 0 
1 -95 42 0 
1 -62 -22 0 
1 -64 -117 0 
1 -77 28 0 
1 -93 -74 0 
1 -53 -120 0 
1 -76 73 0 
1 52 36 0 
1 100 -57 0 
1 64 -132 0 
1 140 -9 0 
1 72 47 0 
1 13 15 0 
1 118 58 0 
1 51 77 0 
1 126 119 0 
1 77 -94 0 
1 -11 -26 0 
1 -109 -82 0 
1 79 -27 0 
1 69 -2 0 
1 -9 81 0 
1 67 112 0 
1 139 33 0 
1 40 61 0 
1 -124 -85 0 
1 102 -104 0 
1 10 40 0 
1 116 17 0 
1 108 10 0 
1 -81 90 0 
